34 78 12 49 18 44 74 22 40 29 88 16 20 61 11 3 97 90 82 73 68 65 39 71 70 30 27 23 15 91 9 85 57 24 59 94 84 99 2 77 63 25 93 4 50 31 79 42 26 13 95 81 98 35 19 64 83 28 17 6 51 14 1 52 8 86 53 80 10 41 55 38 54 32 47 5 56 67 37 7 72 45 89 48 60 69 58 62 75 43 76 92 36 33 87 46 96 0 66 21 

